; benchmark generated from python API
(set-info :status unknown)
(declare-fun S_3 () Real)
(declare-fun S_0 () Real)
(declare-fun C () Real)
(declare-fun S_4 () Real)
(declare-fun B () Real)
(declare-fun A_0 () Real)
(declare-fun L_0 () Real)
(declare-fun S_1 () Real)
(declare-fun S_2 () Real)
(declare-fun L0 () Real)
(declare-fun L_1 () Real)
(declare-fun A_2 () Real)
(declare-fun A_1 () Real)
(declare-fun L_2 () Real)
(declare-fun A_3 () Real)
(declare-fun A_4 () Real)
(assert
 (let (($x8205 (>= (+ (* (- 1.0) C) (* (- 1.0) B) (* (- 1.0) S_3) S_4) 0.0)))
 (let (($x37 (>= L0 0.0)))
 (let (($x721 (>= C 5.0)))
 (let (($x620 (>= B 5.0)))
 (let (($x8678 (<= 0.0 (+ (* (- 3.0) C) (* (- 1.0) B) S_4 (* (- 1.0) S_1)))))
 (let (($x8105 (<= 0.0 (+ L_0 (* (- 1.0) B) (* (- 2.0) C) (* (- 1.0) A_1) S_4))))
 (let (($x8636 (<= 0.0 (+ (* (- 2.0) C) (* (- 1.0) B) S_4 (* (- 1.0) S_2)))))
 (let (($x8345 (<= 0.0 (+ L_0 C (* (- 1.0) A_1) S_0))))
 (let (($x8351 (not $x8345)))
 (let (($x8067 (or (>= S_3 (+ A_2 (* (- 1.0) L_0))) (<= (+ (* (- 1.0) L_0) C A_1 (* (- 1.0) S_3)) 0.0) $x8351)))
 (let (($x8581 (<= 0.0 (+ (* (- 4.0) C) (* (- 1.0) B) (* (- 1.0) S_0) S_4))))
 (let (($x8570 (<= 0.0 (+ L_0 (* (- 3.0) C) (* (- 1.0) B) S_4 (* (- 1.0) A_0)))))
 (let ((?x389 (* (- 1.0) L_1)))
 (let ((?x866 (+ A_2 ?x389)))
 (let (($x2030 (>= S_3 ?x866)))
 (let (($x11228 (or $x2030 (<= (+ (* 2.0 C) S_0 (* (- 1.0) S_3)) 0.0) $x8345)))
 (let (($x11156 (or (<= (+ (* (- 1.0) L_0) A_1 (* (- 1.0) S_2)) 0.0) (<= (+ C S_0 (* (- 1.0) S_2)) 0.0))))
 (let (($x7802 (<= (+ A_2 (* (- 1.0) L_2) C) S_4)))
 (let (($x10941 (or $x7802 (<= (+ (* 3.0 C) S_0 (* (- 1.0) S_4)) 0.0) $x8345)))
 (let (($x810 (not (<= L_1 L_0))))
 (let (($x64 (= L_2 L_1)))
 (let (($x8613 (or $x64 $x810 (<= (+ A_1 (* (- 1.0) L_0) L_2 (* (- 1.0) A_2) C) 0.0))))
 (let ((?x323 (* (- 1.0) C)))
 (let ((?x477 (* (- 1.0) L_2)))
 (let ((?x536 (* (- 1.0) B)))
 (let ((?x8121 (+ ?x536 ?x477 A_2 ?x323)))
 (let (($x8168 (<= (+ A_1 (* (- 1.0) L_0)) ?x8121)))
 (let (($x8368 (or (= (+ ?x323 A_2 ?x477 ?x536 (* (- 1.0) A_1) L_0) 0.0) (not $x8168))))
 (let (($x1149 (not (= L_1 L_2))))
 (let (($x54 (= L_1 L_0)))
 (let (($x7859 (<= A_2 (+ A_1 ?x536 C))))
 (let (($x36 (>= L_0 L0)))
 (let (($x111 (>= S_1 S_0)))
 (let (($x114 (>= S_2 S_1)))
 (let (($x117 (>= S_3 S_2)))
 (let (($x120 (>= S_4 S_3)))
 (let (($x122 (>= A_1 A_0)))
 (let (($x123 (>= A_2 A_1)))
 (let (($x125 (>= A_4 A_3)))
 (and (<= (+ A_2 ?x477) S_4) $x125 $x123 $x122 $x120 $x117 $x114 $x111 $x36 (or $x64 (<= S_2 (+ A_2 ?x477 ?x536))) (or $x54 (<= S_0 (+ ?x536 ?x389 A_1 ?x323))) (>= S_3 (+ A_2 ?x477 ?x536)) (or $x54 (<= S_1 (+ A_1 ?x389 ?x536))) (or $x64 (not (<= L_2 L_1))) (>= S_0 (+ ?x536 ?x389 A_1 (* (- 2.0) C))) (<= (+ ?x536 ?x389 A_1 ?x323) (+ A_0 (* (- 1.0) L_0))) (or $x54 $x64 (= (+ A_2 ?x477) (+ A_1 ?x389 C))) (or $x64 (<= S_4 (+ A_2 ?x477 ?x536 (* 2.0 C)))) (>= S_1 (+ ?x536 ?x389 A_1 ?x323)) (<= S_2 ?x866) (<= S_4 (+ A_2 ?x389 (* 2.0 C))) (>= S_2 (+ A_1 ?x389 ?x536)) (or $x64 (<= S_3 (+ A_2 ?x477 ?x536 C))) (or $x54 (<= S_2 (+ A_1 ?x389 ?x536 C))) (or $x54 (<= S_3 (+ A_1 ?x389 ?x536 (* 2.0 C)))) (or $x54 (<= S_4 (+ A_1 ?x389 ?x536 (* 3.0 C)))) (not (<= (+ A_3 ?x477) S_4)) (or $x7859 (>= S_3 (+ A_1 ?x389 ?x536 C))) (or $x2030 (not $x7859)) (or (not (<= (+ A_1 ?x389 (* 2.0 C)) S_4)) $x54) (or $x64 (not $x7802)) (>= S_4 (+ A_2 ?x477 ?x536 C)) (or $x7802 (>= S_4 (+ A_1 ?x389 ?x536 (* 2.0 C)))) (or $x54 $x1149 (<= (+ A_2 (* (- 1.0) A_1) ?x323) 0.0)) (or $x64 (<= S_1 ?x8121)) (>= S_2 ?x8121) (<= (+ ?x536 ?x477 A_2 (* (- 2.0) C)) (+ A_0 (* (- 1.0) L_0))) (>= S_0 (+ ?x536 ?x477 A_2 (* (- 3.0) C))) (or $x64 (<= S_0 (+ ?x536 ?x477 A_2 (* (- 2.0) C))) $x8168) $x8368 (or $x54 $x810) (>= S_1 (+ ?x536 ?x477 A_2 (* (- 2.0) C))) $x8613 (or $x7802 (<= (+ (* 2.0 C) (* (- 1.0) S_4) S_1) 0.0)) (<= (+ L_0 ?x323 S_1 (* (- 1.0) A_0)) 0.0) (<= (+ (* (- 2.0) C) (* (- 1.0) S_0) S_1) 0.0) (or $x7802 (<= (+ A_1 (* (- 1.0) L_0) (* 2.0 C)) S_4) $x8351) $x10941 $x11156 (<= (+ L_0 (* (- 1.0) A_1) S_1) 0.0) (<= (+ (* (- 3.0) C) L_0 S_3 (* (- 1.0) A_0)) 0.0) (<= (+ (* (- 3.0) C) S_3 (* (- 1.0) S_1)) 0.0) (<= (+ L_0 (* (- 3.0) C) (* (- 1.0) A_1) S_4) 0.0) $x11228 (<= (+ L_0 ?x323 (* (- 1.0) A_1) S_2) 0.0) (or $x2030 (<= (+ C (* (- 1.0) S_3) S_1) 0.0)) (not $x8570) (not $x8581) $x8067 (<= S_3 (+ A_2 ?x389 C)) (<= (+ L_0 (* (- 2.0) C) (* (- 1.0) A_1) S_3) 0.0) (not $x8636) (not $x8105) (<= (+ L_0 (* (- 2.0) C) S_2 (* (- 1.0) A_0)) 0.0) (<= (+ (* (- 3.0) C) (* (- 1.0) S_0) S_2) 0.0) (not (<= (+ A_2 ?x389 C B) S_4)) (<= (+ (* (- 5.0) C) (* (- 1.0) S_0) S_4) 0.0) (not $x8678) (<= (+ (* (- 2.0) C) S_2 (* (- 1.0) S_1)) 0.0) $x620 $x721 $x37 (<= (+ (* (- 2.0) C) (* (- 1.0) S_3) S_4) 0.0) (<= (+ (* (- 3.0) C) S_4 (* (- 1.0) S_2)) 0.0) (<= (+ L_0 S_0 (* (- 1.0) A_0)) 0.0) (<= (+ C (* (- 1.0) S_4) S_2) 0.0) (<= (+ (* (- 2.0) C) S_3 (* (- 1.0) S_2)) 0.0) (<= (+ (* (- 4.0) C) S_4 (* (- 1.0) S_1)) 0.0) (<= (+ L_0 (* (- 4.0) C) S_4 (* (- 1.0) A_0)) 0.0) (not $x8205) (<= (+ (* (- 4.0) C) (* (- 1.0) S_0) S_3) 0.0))))))))))))))))))))))))))))))))))))))))))
(check-sat)
